p cnf 27 504
-1 -2 -13 -14 -15 -16 -17 -18 -20 0
-1 -12 -13 -14 -15 -16 -17 -18 -20 0
-2 -13 -14 -15 -16 -17 -18 -19 -22 0
-2 -13 -14 -15 -16 -17 -18 -19 -21 0
-2 -4 -5 -16 -17 -18 -19 -21 -24 0
-2 -4 -5 -7 -18 -19 -21 -24 -27 0
-2 -4 -5 -7 -8 -19 -21 -24 -27 0
-2 -4 -5 -7 -9 -19 -21 -24 -26 0
-2 -4 -5 -6 -9 -19 -21 -24 -25 -26 0
-2 -4 -5 -8 -19 -21 -24 -25 -27 0
-2 -4 -6 -8 -19 -21 -23 -25 -27 0
-2 -6 -8 -13 -19 -22 -25 -27 0
-2 -8 -13 -14 -15 -19 -22 -24 -27 0
-2 -6 -8 -13 -15 -19 -22 -24 -27 0
-2 -3 -6 -8 -15 -19 -22 -24 -27 0
-2 -3 -8 -14 -15 -19 -22 -24 -27 0
-2 -3 -6 -8 -12 -15 -19 -23 -24 -27 0
-2 -3 -6 -8 -12 -15 -19 -21 -24 -27 0
-2 -3 -6 -9 -12 -15 -19 -23 -26 0
-2 -3 -6 -7 -12 -18 -19 -23 -26 0
-2 -3 -6 -12 -17 -18 -19 -23 -26 0
-2 -3 -6 -9 -12 -19 -23 -25 -26 0
-2 -3 -6 -7 -9 -12 -19 -23 -26 0
-2 -3 -6 -9 -12 -17 -19 -23 -26 0
-2 -3 -6 -9 -12 -16 -19 -23 -26 0
-2 -3 -6 -9 -12 -18 -19 -23 -25 0
-2 -3 -6 -12 -17 -18 -19 -23 -24 0
-2 -3 -6 -12 -17 -18 -19 -23 -25 0
-2 -3 -6 -7 -12 -18 -19 -23 -25 0
-2 -3 -6 -7 -12 -18 -19 -23 -24 -27 0
-2 -3 -6 -7 -12 -16 -18 -19 -23 -27 0
-2 -3 -6 -9 -12 -15 -18 -19 -23 -24 -27 0
-2 -3 -6 -9 -12 -16 -19 -23 -27 0
-2 -3 -6 -8 -12 -16 -19 -23 -27 0
-2 -3 -6 -7 -8 -12 -19 -23 -24 -27 0
-2 -3 -6 -8 -12 -15 -19 -23 -26 -27 0
-2 -3 -6 -7 -8 -12 -19 -23 -26 -27 0
-2 -3 -6 -8 -12 -19 -23 -25 -27 0
-2 -3 -6 -8 -12 -17 -19 -23 -26 0
-2 -3 -6 -8 -12 -15 -18 -19 -23 -26 0
-2 -3 -6 -8 -12 -18 -19 -23 -25 0
-2 -3 -6 -9 -12 -17 -19 -23 -24 -27 0
-2 -3 -6 -12 -16 -17 -18 -19 -23 0
-2 -3 -6 -8 -12 -16 -18 -19 -23 -26 0
-2 -3 -6 -8 -12 -17 -19 -23 -24 -27 0
-2 -6 -8 -12 -13 -17 -19 -24 -27 0
-2 -5 -8 -12 -17 -19 -21 -24 -27 0
-2 -5 -8 -12 -13 -17 -19 -24 -27 0
-2 -5 -8 -11 -17 -19 -22 -24 -27 0
-2 -5 -8 -17 -19 -21 -22 -24 -27 0
-2 -5 -8 -13 -17 -19 -22 -24 -27 0
-2 -5 -8 -14 -17 -19 -21 -24 -27 0
-2 -4 -5 -8 -17 -19 -21 -24 -27 0
-2 -5 -8 -13 -17 -19 -21 -24 -27 0
-2 -5 -8 -13 -17 -19 -20 -24 -27 0
-2 -8 -13 -14 -15 -19 -20 -24 -27 0
-2 -4 -8 -13 -15 -19 -20 -24 -27 0
-2 -7 -8 -13 -14 -19 -20 -24 -27 0
-2 -4 -7 -8 -13 -19 -20 -24 -27 0
-2 -7 -8 -13 -14 -19 -21 -24 -27 0
-2 -7 -8 -13 -14 -19 -22 -24 -27 0
-2 -8 -13 -14 -15 -19 -21 -24 -27 0
-2 -5 -8 -14 -19 -21 -25 -27 0
-2 -5 -8 -14 -16 -19 -21 -23 -27 0
-2 -5 -7 -8 -14 -19 -21 -23 -26 -27 0
-2 -5 -8 -14 -17 -19 -21 -23 -26 0
-2 -5 -8 -14 -18 -19 -21 -25 0
-2 -5 -8 -9 -14 -19 -21 -25 -26 0
-2 -5 -9 -14 -16 -19 -21 -23 -26 0
-2 -5 -7 -9 -14 -19 -21 -23 -26 0
-2 -5 -7 -14 -18 -19 -21 -23 -26 0
-2 -5 -7 -14 -18 -19 -21 -25 0
-2 -5 -7 -14 -15 -18 -19 -21 -26 0
-2 -5 -7 -14 -18 -19 -21 -24 -26 0
-2 -5 -6 -14 -17 -18 -19 -21 -23 -26 0
-2 -5 -14 -16 -17 -18 -19 -21 -23 0
-2 -5 -6 -14 -17 -18 -19 -21 -25 0
-2 -5 -14 -16 -17 -18 -19 -21 -25 0
-2 -5 -6 -14 -17 -18 -19 -21 -24 0
-2 -5 -14 -15 -16 -17 -18 -19 -21 0
-2 -5 -14 -16 -17 -18 -19 -21 -24 0
-2 -5 -6 -14 -15 -17 -18 -19 -21 -26 0
-2 -5 -7 -14 -17 -18 -19 -21 -24 0
-2 -5 -6 -9 -14 -17 -19 -21 -25 -27 0
-2 -5 -6 -9 -14 -19 -21 -25 -26 0
-2 -5 -9 -14 -16 -19 -21 -25 -26 0
-2 -5 -9 -14 -16 -19 -21 -25 -27 0
-2 -5 -7 -9 -14 -19 -21 -25 -26 0
-2 -5 -7 -9 -14 -17 -19 -21 -25 -27 0
-2 -5 -8 -14 -17 -19 -21 -25 -26 0
-2 -5 -8 -14 -15 -17 -19 -21 -26 0
-2 -5 -8 -14 -17 -19 -21 -24 -26 0
-2 -5 -6 -9 -14 -17 -19 -21 -23 -26 0
-2 -5 -6 -9 -14 -15 -19 -21 -26 0
-2 -5 -9 -14 -15 -16 -19 -21 -26 0
-2 -5 -9 -14 -16 -19 -21 -24 -26 0
-2 -5 -7 -9 -14 -19 -21 -24 -26 0
-2 -5 -7 -9 -14 -15 -19 -21 -26 0
-2 -5 -8 -9 -14 -15 -19 -21 -26 0
-2 -5 -6 -9 -14 -17 -19 -21 -24 -26 0
-2 -5 -8 -14 -15 -18 -19 -21 -26 0
-2 -5 -8 -14 -15 -19 -21 -26 -27 0
-2 -5 -8 -14 -16 -19 -21 -24 -27 0
-2 -5 -8 -14 -17 -18 -19 -21 -24 0
-2 -5 -8 -14 -15 -16 -19 -21 -27 0
-2 -5 -7 -8 -14 -19 -21 -24 -27 0
-2 -5 -8 -14 -15 -19 -21 -24 -27 0
-2 -5 -9 -14 -16 -18 -19 -21 -25 0
-2 -5 -6 -9 -14 -18 -19 -21 -25 0
-2 -5 -9 -14 -16 -19 -21 -23 -27 0
-2 -5 -9 -14 -15 -16 -19 -21 -27 0
-2 -5 -9 -14 -16 -19 -21 -24 -27 0
-2 -5 -7 -14 -18 -19 -21 -24 -27 0
-2 -5 -6 -9 -14 -15 -18 -19 -21 -24 -27 0
-2 -5 -6 -9 -14 -17 -19 -21 -24 -27 0
-2 -5 -7 -9 -14 -17 -19 -21 -24 -27 0
-2 -5 -7 -14 -16 -18 -19 -21 -23 -27 0
-2 -5 -7 -14 -15 -16 -18 -19 -21 -27 0
-2 -5 -8 -14 -16 -18 -19 -21 -23 -26 0
-2 -5 -8 -14 -16 -18 -19 -21 -24 -26 0
-2 -3 -7 -14 -18 -19 -21 -24 -27 0
-2 -4 -7 -14 -18 -19 -21 -24 -27 0
-2 -7 -13 -14 -18 -19 -21 -24 -27 0
-2 -3 -7 -14 -17 -18 -19 -21 -24 0
-2 -4 -7 -14 -17 -18 -19 -21 -24 0
-2 -7 -13 -14 -17 -18 -19 -21 -24 0
-2 -3 -7 -14 -18 -19 -21 -24 -26 0
-2 -4 -7 -14 -18 -19 -21 -24 -26 0
-2 -7 -13 -14 -18 -19 -21 -24 -26 0
-2 -3 -7 -14 -18 -19 -21 -25 0
-2 -3 -7 -14 -16 -18 -19 -21 -23 -27 0
-2 -3 -7 -14 -15 -16 -18 -19 -21 -27 0
-2 -4 -7 -16 -18 -19 -21 -23 -27 0
-2 -6 -7 -13 -16 -18 -19 -21 -23 -27 0
-2 -6 -7 -13 -15 -16 -18 -19 -22 -27 0
-2 -6 -7 -13 -16 -18 -19 -20 -23 -27 0
-2 -6 -7 -12 -13 -16 -18 -19 -23 -27 0
-2 -6 -7 -13 -16 -18 -19 -22 -23 -27 0
-2 -4 -7 -13 -16 -18 -19 -20 -23 -27 0
-2 -4 -7 -12 -16 -18 -19 -23 -27 0
-2 -4 -7 -11 -16 -18 -20 -23 -27 0
-1 -4 -7 -12 -16 -18 -20 -23 -27 0
-4 -7 -10 -11 -12 -16 -18 -23 -27 0
-4 -7 -10 -11 -16 -18 -20 -23 -27 0
-1 -4 -7 -11 -16 -18 -20 -23 -27 0
-1 -4 -7 -13 -16 -18 -20 -23 -27 0
-1 -3 -4 -7 -16 -18 -20 -23 -27 0
-3 -4 -7 -10 -16 -18 -20 -23 -27 0
-2 -3 -4 -7 -16 -18 -19 -20 -23 -27 0
-2 -4 -7 -10 -13 -16 -18 -20 -23 -27 0
-2 -4 -7 -10 -12 -16 -18 -20 -23 -27 0
-2 -4 -7 -10 -16 -18 -21 -23 -27 0
-4 -7 -10 -11 -16 -18 -22 -23 -27 0
-4 -7 -10 -11 -16 -18 -21 -23 -27 0
-3 -4 -7 -10 -16 -18 -21 -23 -27 0
-1 -4 -7 -10 -16 -18 -21 -23 -27 0
-1 -4 -7 -12 -16 -18 -19 -23 -27 0
-1 -4 -7 -10 -13 -16 -18 -19 -22 -23 -27 0
-3 -4 -7 -10 -16 -18 -19 -22 -23 -27 0
-3 -4 -7 -10 -12 -16 -18 -19 -23 -27 0
-2 -4 -7 -13 -16 -18 -19 -22 -23 -27 0
-2 -3 -4 -7 -16 -18 -19 -22 -23 -27 0
-2 -4 -7 -11 -16 -18 -19 -22 -23 -27 0
-1 -4 -7 -11 -16 -18 -19 -22 -23 -27 0
-1 -4 -7 -11 -16 -18 -19 -21 -23 -27 0
-1 -4 -7 -16 -18 -20 -21 -23 -27 0
-3 -7 -10 -14 -16 -18 -21 -23 -27 0
-3 -6 -7 -10 -13 -16 -18 -21 -23 -27 0
-3 -5 -7 -10 -13 -16 -18 -21 -23 -27 0
-3 -6 -7 -10 -16 -18 -21 -22 -23 -27 0
-3 -6 -7 -10 -12 -16 -18 -21 -23 -27 0
-3 -5 -7 -10 -16 -18 -21 -22 -23 -27 0
-3 -5 -7 -10 -12 -16 -18 -21 -23 -27 0
-1 -5 -7 -10 -12 -16 -18 -21 -23 -27 0
-5 -7 -10 -11 -12 -16 -18 -23 -27 0
-1 -5 -7 -12 -16 -18 -19 -23 -27 0
-1 -5 -7 -12 -16 -18 -20 -23 -27 0
-2 -5 -7 -12 -16 -18 -19 -23 -27 0
-2 -7 -12 -13 -14 -16 -18 -19 -23 -27 0
-2 -7 -13 -14 -16 -18 -19 -22 -23 -27 0
-2 -7 -13 -14 -16 -18 -19 -20 -23 -27 0
-2 -5 -7 -13 -16 -18 -19 -22 -23 -27 0
-2 -5 -7 -13 -16 -18 -19 -20 -23 -27 0
-2 -5 -7 -11 -16 -18 -19 -22 -23 -27 0
-2 -3 -5 -7 -16 -18 -19 -22 -23 -27 0
-2 -3 -6 -7 -16 -18 -19 -22 -23 -27 0
-2 -3 -7 -14 -16 -18 -19 -22 -23 -27 0
-2 -3 -7 -14 -16 -18 -19 -20 -23 -27 0
-2 -5 -7 -11 -14 -16 -18 -20 -23 -27 0
-1 -2 -7 -13 -14 -16 -18 -20 -23 -27 0
-2 -7 -10 -13 -14 -16 -18 -20 -23 -27 0
-2 -7 -11 -13 -14 -16 -18 -20 -23 -27 0
-1 -2 -6 -7 -13 -16 -18 -20 -23 -27 0
-2 -6 -7 -10 -13 -16 -18 -20 -23 -27 0
-2 -6 -7 -11 -13 -16 -18 -20 -23 -27 0
-1 -2 -5 -7 -13 -16 -18 -20 -23 -27 0
-2 -5 -7 -10 -13 -16 -18 -20 -23 -27 0
-2 -5 -7 -11 -13 -16 -18 -20 -23 -27 0
-2 -5 -7 -10 -13 -16 -18 -21 -23 -27 0
-2 -5 -7 -10 -11 -16 -18 -22 -23 -27 0
-2 -5 -7 -10 -16 -18 -21 -22 -23 -27 0
-2 -5 -7 -10 -12 -16 -18 -21 -23 -27 0
-3 -5 -7 -10 -16 -18 -20 -22 -23 -27 0
-3 -5 -7 -10 -11 -16 -18 -22 -23 -27 0
-3 -5 -7 -10 -16 -18 -19 -22 -23 -27 0
-3 -5 -7 -10 -12 -16 -18 -19 -23 -27 0
-3 -5 -7 -10 -12 -16 -18 -20 -23 -27 0
-2 -5 -7 -10 -12 -16 -18 -20 -23 -27 0
-3 -7 -10 -14 -16 -18 -20 -23 -27 0
-3 -6 -7 -10 -13 -16 -18 -20 -23 -27 0
-3 -6 -7 -10 -16 -18 -20 -22 -23 -27 0
-3 -6 -7 -10 -16 -18 -19 -22 -23 -27 0
-3 -7 -10 -14 -16 -18 -19 -22 -23 -27 0
-3 -6 -7 -10 -11 -16 -18 -22 -23 -27 0
-3 -7 -10 -11 -14 -16 -18 -22 -23 -27 0
-3 -6 -7 -10 -11 -12 -16 -18 -23 -27 0
-3 -7 -10 -11 -12 -14 -16 -18 -23 -27 0
-3 -6 -7 -10 -12 -16 -18 -20 -23 -27 0
-3 -6 -7 -10 -12 -16 -18 -19 -23 -27 0
-3 -7 -10 -12 -14 -16 -18 -19 -23 -27 0
-3 -5 -7 -10 -13 -16 -18 -20 -23 -27 0
-2 -5 -7 -10 -14 -16 -18 -21 -23 -27 0
-2 -7 -10 -11 -13 -14 -16 -18 -22 -23 -27 0
-2 -6 -7 -10 -11 -13 -16 -18 -22 -23 -27 0
-6 -7 -10 -11 -12 -13 -16 -18 -23 -27 0
-7 -10 -11 -12 -13 -14 -16 -18 -23 -27 0
-1 -6 -7 -12 -13 -16 -18 -19 -23 -27 0
-1 -6 -7 -12 -13 -16 -18 -20 -23 -27 0
-1 -3 -6 -7 -12 -16 -18 -19 -23 -27 0
-1 -3 -6 -7 -12 -16 -18 -20 -23 -27 0
-2 -3 -6 -7 -11 -12 -16 -18 -20 -23 -27 0
-2 -5 -7 -11 -12 -16 -18 -20 -23 -27 0
-1 -7 -12 -13 -14 -16 -18 -20 -23 -27 0
-1 -7 -12 -13 -14 -16 -18 -19 -23 -27 0
-2 -3 -7 -12 -14 -16 -18 -19 -23 -27 0
-1 -3 -7 -12 -14 -16 -18 -19 -23 -27 0
-1 -3 -7 -14 -16 -18 -20 -23 -27 0
-2 -3 -7 -11 -14 -16 -18 -20 -23 -27 0
-2 -3 -6 -7 -11 -16 -18 -20 -22 -23 -27 0
-1 -3 -6 -7 -16 -18 -20 -22 -23 -27 0
-1 -3 -6 -7 -13 -16 -18 -20 -23 -27 0
-1 -3 -5 -7 -16 -18 -20 -22 -23 -27 0
-1 -3 -5 -7 -13 -16 -18 -20 -23 -27 0
-1 -3 -5 -7 -11 -16 -18 -19 -22 -23 -27 0
-1 -3 -5 -7 -11 -13 -16 -18 -19 -21 -23 -27 0
-2 -5 -7 -13 -16 -18 -19 -21 -23 -27 0
-2 -5 -7 -16 -18 -19 -21 -22 -23 -27 0
-2 -5 -7 -11 -16 -18 -20 -22 -23 -27 0
-1 -2 -5 -7 -14 -16 -18 -20 -21 -23 -27 0
-1 -2 -5 -7 -16 -18 -20 -21 -22 -23 -27 0
-2 -7 -13 -14 -16 -18 -19 -21 -23 -27 0
-1 -3 -6 -7 -11 -16 -18 -19 -22 -23 -27 0
-1 -3 -6 -7 -11 -13 -16 -18 -19 -21 -23 -27 0
-1 -3 -7 -11 -14 -16 -18 -19 -21 -23 -27 0
-1 -3 -7 -11 -14 -16 -18 -19 -22 -23 -27 0
-3 -7 -10 -13 -14 -15 -16 -18 -20 -27 0
-3 -7 -10 -13 -14 -18 -20 -25 0
-3 -7 -10 -13 -14 -15 -18 -20 -26 0
-3 -7 -10 -13 -14 -17 -18 -20 -24 0
-3 -7 -10 -13 -14 -18 -20 -24 -26 0
-3 -7 -10 -14 -17 -18 -20 -22 -24 0
-3 -7 -10 -14 -18 -20 -22 -24 -26 0
-3 -7 -10 -14 -18 -20 -22 -25 0
-3 -7 -10 -14 -15 -18 -20 -22 -26 0
-3 -7 -10 -14 -15 -18 -21 -26 0
-3 -7 -10 -14 -18 -21 -25 0
-7 -10 -11 -12 -13 -14 -18 -25 0
-1 -7 -12 -13 -14 -18 -19 -25 0
-2 -7 -12 -13 -14 -18 -19 -25 0
-1 -4 -7 -12 -14 -18 -19 -22 -25 0
-1 -5 -6 -7 -12 -18 -19 -22 -25 0
-1 -5 -7 -12 -15 -18 -19 -22 -25 0
-1 -4 -7 -12 -15 -18 -19 -22 -25 0
-1 -3 -6 -7 -12 -15 -18 -19 -22 -25 0
-1 -5 -7 -12 -18 -19 -22 -24 -25 0
-1 -5 -7 -12 -16 -18 -19 -22 -25 0
-1 -5 -7 -12 -18 -19 -21 -24 -25 0
-1 -4 -7 -12 -15 -18 -19 -21 -24 -25 0
-1 -3 -6 -7 -12 -15 -18 -19 -21 -24 -25 0
-1 -3 -6 -7 -12 -18 -19 -23 -25 0
-1 -4 -6 -7 -12 -18 -19 -23 -25 0
-1 -4 -7 -12 -16 -18 -19 -23 -25 0
-1 -4 -7 -12 -18 -19 -23 -24 -25 0
-1 -4 -7 -12 -15 -18 -19 -23 -25 0
-1 -5 -7 -12 -16 -18 -19 -23 -25 0
-1 -5 -7 -12 -18 -19 -23 -24 -25 0
-1 -5 -7 -12 -15 -18 -19 -23 -25 0
-1 -5 -7 -12 -14 -18 -19 -23 -25 0
-1 -3 -7 -12 -14 -18 -19 -23 -25 0
-1 -4 -7 -12 -14 -18 -19 -23 -25 0
-1 -3 -7 -12 -14 -18 -19 -21 -25 0
-1 -3 -7 -12 -14 -18 -19 -22 -25 0
-1 -4 -7 -12 -14 -18 -19 -21 -25 0
-1 -5 -7 -12 -14 -18 -19 -21 -25 0
-1 -5 -7 -12 -14 -18 -19 -22 -25 0
-1 -5 -6 -7 -12 -18 -19 -23 -25 0
-2 -5 -6 -7 -12 -18 -19 -23 -25 0
-5 -6 -7 -10 -11 -12 -18 -23 -25 0
-2 -5 -6 -7 -10 -12 -18 -20 -23 -25 0
-2 -5 -6 -7 -11 -12 -18 -20 -23 -25 0
-2 -5 -6 -7 -10 -12 -18 -21 -23 -25 0
-3 -6 -7 -10 -12 -18 -21 -23 -25 0
-2 -3 -6 -7 -11 -12 -18 -20 -23 -25 0
-3 -6 -7 -10 -11 -12 -18 -23 -25 0
-3 -6 -7 -10 -12 -18 -20 -23 -25 0
-2 -4 -6 -7 -10 -12 -18 -20 -23 -25 0
-2 -6 -7 -10 -13 -18 -20 -23 -25 0
-2 -4 -6 -7 -10 -18 -21 -23 -25 0
-2 -5 -6 -7 -10 -18 -21 -22 -25 0
-2 -4 -5 -7 -10 -18 -21 -24 -25 0
-2 -5 -7 -10 -16 -18 -21 -22 -25 0
-2 -5 -7 -10 -18 -21 -22 -24 -25 0
-2 -5 -7 -10 -15 -18 -21 -22 -25 0
-2 -5 -7 -10 -14 -18 -21 -25 0
-2 -5 -7 -10 -13 -18 -21 -24 -25 0
-2 -4 -7 -10 -13 -18 -21 -24 -25 0
-2 -7 -10 -13 -14 -18 -21 -25 0
-2 -4 -7 -10 -13 -16 -18 -21 -22 -25 0
-2 -4 -7 -10 -15 -18 -21 -22 -25 0
-2 -4 -7 -10 -14 -18 -21 -25 0
-2 -4 -7 -10 -15 -18 -21 -24 -25 0
-2 -4 -7 -10 -15 -18 -21 -23 -25 0
-2 -4 -7 -10 -16 -18 -21 -23 -25 0
-2 -4 -7 -10 -18 -21 -23 -24 -25 0
-3 -6 -7 -10 -18 -21 -22 -23 -25 0
-3 -4 -6 -7 -10 -18 -21 -23 -25 0
-4 -6 -7 -10 -11 -18 -21 -23 -25 0
-1 -4 -6 -7 -10 -18 -21 -23 -25 0
-4 -7 -10 -11 -15 -18 -21 -24 -25 0
-1 -4 -7 -10 -15 -18 -21 -24 -25 0
-3 -4 -7 -10 -15 -18 -21 -24 -25 0
-4 -7 -10 -11 -15 -18 -22 -25 0
-1 -4 -7 -12 -15 -18 -20 -22 -25 0
-1 -4 -7 -11 -15 -18 -20 -22 -25 0
-1 -4 -7 -11 -15 -18 -19 -22 -25 0
-1 -3 -4 -7 -15 -18 -20 -22 -25 0
-2 -3 -4 -7 -15 -18 -19 -22 -25 0
-2 -4 -7 -12 -15 -18 -19 -22 -25 0
-2 -4 -7 -11 -15 -18 -19 -22 -25 0
-2 -4 -7 -11 -15 -18 -20 -22 -25 0
-2 -4 -7 -15 -18 -19 -21 -22 -25 0
-2 -4 -7 -13 -15 -18 -19 -22 -25 0
-1 -4 -7 -15 -18 -20 -21 -22 -25 0
-1 -4 -7 -13 -15 -18 -20 -22 -25 0
-3 -4 -7 -10 -15 -18 -20 -22 -25 0
-3 -4 -7 -10 -15 -18 -21 -22 -25 0
-3 -4 -7 -10 -15 -18 -19 -22 -25 0
-1 -4 -7 -10 -15 -18 -21 -22 -25 0
-1 -4 -7 -10 -13 -15 -18 -19 -22 -25 0
-2 -4 -7 -10 -13 -15 -18 -20 -22 -25 0
-2 -4 -7 -10 -12 -15 -18 -20 -22 -25 0
-2 -4 -7 -10 -13 -18 -20 -24 -25 0
-2 -7 -10 -13 -14 -18 -20 -25 0
-2 -6 -7 -10 -13 -18 -20 -24 -25 0
-2 -5 -7 -10 -13 -18 -20 -24 -25 0
-2 -5 -7 -10 -13 -16 -18 -20 -23 -25 0
-2 -5 -7 -10 -12 -16 -18 -20 -23 -25 0
-2 -5 -7 -10 -12 -14 -18 -20 -23 -25 0
-3 -7 -10 -14 -18 -20 -23 -25 0
-1 -5 -7 -10 -12 -14 -18 -21 -25 0
-5 -7 -10 -11 -12 -14 -18 -21 -25 0
-5 -7 -10 -11 -12 -14 -18 -23 -25 0
-5 -7 -10 -11 -12 -14 -18 -22 -25 0
-5 -7 -10 -11 -12 -16 -18 -23 -25 0
-5 -7 -10 -11 -12 -18 -23 -24 -25 0
-5 -7 -10 -11 -12 -15 -18 -23 -25 0
-5 -7 -10 -11 -12 -16 -18 -22 -25 0
-5 -7 -10 -11 -12 -18 -22 -24 -25 0
-5 -7 -10 -11 -12 -15 -18 -22 -25 0
-5 -6 -7 -10 -11 -12 -18 -22 -25 0
-5 -7 -10 -11 -12 -18 -21 -24 -25 0
-5 -7 -10 -11 -12 -13 -18 -24 -25 0
-3 -7 -10 -11 -12 -14 -18 -23 -25 0
-4 -7 -10 -11 -12 -14 -18 -23 -25 0
-3 -7 -10 -11 -14 -18 -22 -25 0
-4 -7 -10 -11 -14 -18 -22 -25 0
-4 -7 -10 -11 -14 -18 -20 -23 -25 0
-4 -7 -10 -11 -14 -18 -21 -25 0
-2 -5 -7 -11 -14 -18 -20 -23 -25 0
-1 -4 -7 -11 -14 -18 -20 -23 -25 0
-2 -4 -7 -11 -14 -18 -20 -23 -25 0
-1 -4 -7 -11 -14 -18 -19 -21 -25 0
-2 -4 -7 -14 -18 -19 -21 -25 0
-1 -4 -7 -14 -18 -20 -21 -25 0
-2 -7 -13 -14 -18 -19 -20 -25 0
-1 -2 -7 -13 -14 -18 -20 -25 0
-1 -3 -7 -14 -18 -20 -22 -25 0
-1 -3 -7 -14 -18 -20 -23 -25 0
-1 -5 -7 -12 -14 -18 -20 -22 -25 0
-1 -4 -7 -12 -14 -18 -20 -22 -25 0
-1 -5 -7 -12 -14 -18 -20 -23 -25 0
-1 -5 -7 -12 -14 -18 -20 -21 -25 0
-1 -2 -5 -7 -14 -18 -20 -21 -25 0
-2 -5 -7 -11 -14 -18 -20 -22 -25 0
-2 -4 -7 -11 -14 -18 -20 -22 -25 0
-2 -3 -7 -11 -14 -18 -20 -22 -25 0
-2 -3 -7 -11 -14 -18 -20 -23 -25 0
-2 -3 -7 -11 -14 -18 -20 -21 -25 0
-2 -5 -7 -11 -14 -18 -20 -21 -25 0
-2 -4 -7 -11 -14 -18 -20 -21 -25 0
-2 -4 -7 -12 -14 -18 -19 -23 -25 0
-2 -4 -7 -12 -14 -18 -19 -22 -25 0
-2 -3 -7 -14 -18 -19 -22 -25 0
-2 -3 -7 -12 -14 -18 -19 -23 -25 0
-2 -5 -7 -12 -14 -18 -19 -23 -25 0
-2 -5 -7 -10 -11 -14 -18 -22 -25 0
-2 -7 -10 -11 -13 -14 -18 -22 -25 0
-2 -7 -13 -14 -18 -19 -22 -25 0
-2 -7 -11 -13 -14 -18 -20 -25 0
-1 -3 -7 -13 -14 -18 -20 -25 0
-1 -4 -7 -13 -14 -18 -20 -25 0
-1 -7 -12 -13 -14 -18 -20 -25 0
-3 -7 -10 -14 -18 -19 -22 -25 0
-3 -7 -10 -12 -14 -18 -19 -23 -25 0
-1 -4 -7 -10 -14 -18 -21 -25 0
-2 -5 -7 -12 -14 -18 -19 -22 -25 0
-2 -5 -7 -11 -14 -18 -19 -22 -25 0
-2 -4 -7 -11 -14 -18 -19 -22 -25 0
-1 -4 -7 -11 -14 -18 -19 -22 -25 0
-1 -3 -7 -11 -14 -18 -19 -22 -25 0
-1 -4 -7 -11 -14 -18 -20 -22 -25 0
-4 -5 -7 -10 -11 -16 -18 -22 -25 0
-4 -5 -6 -7 -10 -11 -18 -22 -25 0
-4 -5 -7 -10 -11 -18 -22 -24 -25 0
-4 -7 -10 -11 -16 -18 -22 -23 -25 0
-4 -6 -7 -10 -11 -18 -22 -23 -25 0
-4 -7 -10 -11 -18 -22 -23 -24 -25 0
-3 -5 -7 -10 -11 -16 -18 -22 -25 0
-3 -5 -7 -10 -11 -15 -18 -22 -25 0
-3 -5 -6 -7 -10 -11 -18 -22 -25 0
-3 -5 -7 -10 -11 -18 -22 -24 -25 0
-3 -6 -7 -10 -11 -18 -22 -23 -25 0
-3 -6 -7 -10 -11 -15 -18 -22 -25 0
-3 -6 -7 -10 -11 -13 -18 -22 -25 0
-4 -7 -10 -11 -13 -16 -18 -22 -25 0
-4 -7 -10 -11 -13 -18 -22 -24 -25 0
-4 -6 -7 -10 -11 -13 -18 -22 -25 0
-2 -5 -7 -10 -11 -16 -18 -22 -25 0
-2 -5 -7 -10 -11 -18 -22 -24 -25 0
-2 -5 -7 -10 -11 -15 -18 -22 -25 0
-2 -5 -6 -7 -10 -11 -18 -22 -25 0
-2 -6 -7 -10 -11 -13 -18 -22 -25 0
-6 -7 -10 -11 -12 -13 -18 -22 -25 0
-3 -5 -7 -10 -13 -16 -18 -20 -23 -25 0
-3 -5 -7 -10 -13 -16 -18 -21 -23 -25 0
-3 -5 -7 -10 -13 -18 -20 -24 -25 0
-3 -5 -7 -10 -13 -18 -21 -24 -25 0
-3 -5 -7 -10 -13 -15 -18 -20 -23 -25 0
-3 -5 -7 -10 -13 -15 -18 -21 -23 -25 0
-3 -6 -7 -10 -13 -18 -20 -23 -25 0
-3 -6 -7 -10 -13 -18 -20 -24 -25 0
-3 -4 -7 -10 -16 -18 -20 -23 -25 0
-3 -4 -7 -10 -15 -18 -20 -23 -25 0
-3 -4 -7 -10 -18 -20 -23 -24 -25 0
-3 -5 -7 -10 -12 -18 -20 -23 -24 -25 0
-3 -5 -7 -10 -12 -18 -21 -24 -25 0
-3 -4 -5 -7 -10 -18 -21 -24 -25 0
-3 -5 -7 -10 -12 -18 -19 -23 -24 -25 0
-3 -4 -6 -7 -10 -18 -20 -23 -25 0
-3 -6 -7 -10 -13 -18 -21 -23 -25 0
-3 -4 -7 -10 -16 -18 -21 -23 -25 0
-3 -4 -7 -10 -15 -18 -21 -23 -25 0
-3 -4 -7 -10 -12 -16 -18 -19 -23 -25 0
-4 -7 -10 -11 -12 -16 -18 -23 -25 0
-2 -4 -7 -12 -16 -18 -19 -23 -25 0
-2 -4 -7 -12 -15 -18 -19 -23 -25 0
-2 -4 -6 -7 -12 -18 -19 -23 -25 0
-2 -4 -7 -16 -18 -19 -21 -23 -25 0
-1 -4 -7 -11 -16 -18 -19 -21 -23 -25 0
-1 -4 -7 -11 -15 -18 -19 -21 -23 -25 0
-2 -4 -7 -15 -18 -19 -21 -23 -25 0
-1 -4 -6 -7 -11 -18 -19 -21 -23 -25 0
-2 -4 -6 -7 -18 -19 -21 -23 -25 0
-1 -4 -7 -11 -18 -19 -21 -23 -24 -25 0
-1 -4 -7 -18 -20 -21 -23 -24 -25 0
-1 -4 -6 -7 -18 -20 -21 -23 -25 0
-1 -4 -7 -16 -18 -20 -21 -23 -25 0
-1 -4 -7 -15 -18 -20 -21 -23 -25 0
-1 -6 -7 -12 -13 -18 -20 -23 -25 0
-1 -5 -6 -7 -12 -18 -20 -23 -25 0
-1 -3 -6 -7 -12 -18 -20 -23 -25 0
-6 -7 -10 -11 -12 -13 -18 -23 -25 0
-2 -6 -7 -10 -13 -18 -21 -23 -25 0
-3 -6 -7 -10 -18 -19 -22 -23 -25 0
-2 -6 -7 -13 -18 -19 -22 -25 0
-2 -3 -6 -7 -15 -18 -19 -22 -25 0
-2 -5 -7 -11 -15 -18 -19 -22 -25 0
-2 -3 -5 -7 -15 -18 -19 -22 -25 0
-2 -5 -7 -11 -16 -18 -19 -22 -25 0
-2 -5 -7 -11 -18 -19 -22 -24 -25 0
-2 -3 -5 -7 -16 -18 -19 -22 -25 0
-2 -3 -5 -7 -18 -19 -22 -24 -25 0
-2 -5 -7 -13 -16 -18 -19 -22 -25 0
-2 -5 -7 -16 -18 -19 -21 -22 -25 0
-2 -5 -7 -13 -18 -19 -22 -24 -25 0
-2 -5 -7 -18 -19 -21 -22 -24 -25 0
-2 -5 -7 -13 -15 -18 -19 -22 -25 0
-2 -5 -7 -15 -18 -19 -21 -22 -25 0
-2 -5 -7 -12 -15 -18 -19 -22 -25 0
-1 -2 -6 -7 -13 -18 -20 -22 -25 0
-2 -6 -7 -10 -13 -18 -20 -22 -25 0
-2 -6 -7 -11 -13 -18 -20 -22 -25 0
-2 -4 -6 -7 -11 -18 -20 -23 -25 0
-4 -6 -7 -10 -11 -12 -18 -23 -25 0
